maximize

	+ 1 x_01

subject to

-343 x_01 - 343 x_02 - 343 x_03 - 343 x_04 - 343 x_05 - 343 x_06 - 514 x_07 - 514 x_08 - 514 x_09 - 514 x_10 - 514 x_11 - 514 x_12 - 514 x_13 - 514 x_14 >= -457

171 x_02 + 171 x_04 + 171 x_05 + 171 x_08 + 171 x_09 + 171 x_11 + 514 x_14 >= 57

171 x_02 + 171 x_04 + 171 x_05 + 171 x_07 + 171 x_10 + 171 x_12 + 514 x_13 >= 57

171 x_02 + 171 x_03 + 171 x_06 + 171 x_08 + 171 x_09 + 514 x_12 + 171 x_13 >= 57

171 x_02 + 171 x_03 + 171 x_06 + 171 x_07 + 171 x_10 + 514 x_11 + 171 x_14 >= 57

171 x_01 + 171 x_04 + 171 x_06 + 171 x_08 + 514 x_10 + 171 x_11 + 171 x_13 >= 57

171 x_01 + 171 x_04 + 171 x_06 + 171 x_07 + 514 x_09 + 171 x_12 + 171 x_14 >= 57

171 x_01 + 171 x_03 + 171 x_05 + 514 x_07 + 171 x_09 + 171 x_11 + 171 x_13 >= 57

171 x_01 + 171 x_03 + 171 x_05 + 514 x_08 + 171 x_10 + 171 x_12 + 171 x_14 >= 57

343 x_01 - 171 x_03 - 171 x_04 - 171 x_05 - 171 x_06 - 171 x_11 - 171 x_12 - 171 x_13 - 171 x_14 >= -114

-171 x_01 - 171 x_02 + 343 x_03 - 171 x_05 - 171 x_06 - 171 x_09 - 171 x_10 - 171 x_13 - 171 x_14 >= -114

-171 x_01 - 171 x_02 - 171 x_03 - 171 x_04 + 343 x_05 - 171 x_09 - 171 x_10 - 171 x_11 - 171 x_12 >= -114

-171 x_01 - 171 x_02 - 171 x_03 - 171 x_04 + 343 x_06 - 171 x_07 - 171 x_08 - 171 x_13 - 171 x_14 >= -114

-171 x_01 - 171 x_02 + 343 x_04 - 171 x_05 - 171 x_06 - 171 x_07 - 171 x_08 - 171 x_11 - 171 x_12 >= -114

343 x_02 - 171 x_03 - 171 x_04 - 171 x_05 - 171 x_06 - 171 x_07 - 171 x_08 - 171 x_09 - 171 x_10 >= -114

x_00 + x_01 + x_02 + x_03 + x_04 + x_05 + x_06 + x_07 + x_08 + x_09 + x_10 + x_11 + x_12 + x_13 + x_14 = 1

bounds

	
	-228 <= x_00 <= 228
	-228 <= x_01 <= 228
	-228 <= x_02 <= 228
	-228 <= x_03 <= 228
	-228 <= x_04 <= 228
	-228 <= x_05 <= 228
	-228 <= x_06 <= 228
	-228 <= x_07 <= 228
	-228 <= x_08 <= 228
	-228 <= x_09 <= 228
	-228 <= x_10 <= 228
	-228 <= x_11 <= 228
	-228 <= x_12 <= 228
	-228 <= x_13 <= 228
	-228 <= x_14 <= 228

general

	x_00 
	x_01 
	x_02 
	x_03 
	x_04 
	x_05 
	x_06 
	x_07 
	x_08 
	x_09 
	x_10 
	x_11 
	x_12 
	x_13 
	x_14
 
end
